# Solution for model GNN
# Objective value = 1.8336452441507740e+00
A[0,0] 1
A[0,1] 1
A[0,2] 1
A[0,3] 1
A[1,0] 1
A[1,1] 1
A[1,2] 1
A[1,3] 1
A[2,0] 1
A[2,1] 1
A[2,2] 1
A[2,3] 1
A[3,0] 1
A[3,1] 1
A[3,2] 1
A[3,3] 1
x[0,0] 1
x[0,1] 0
x[0,2] 0
x[0,3] 0
x[0,4] 0
x[0,5] 0
x[0,6] 0
x[0,7] 1
x[0,8] 0
x[0,9] 0
x[0,10] 1
x[0,11] 0
x[0,12] 0
x[0,13] 0
x[1,0] 1
x[1,1] 0
x[1,2] 0
x[1,3] 0
x[1,4] 0
x[1,5] 0
x[1,6] 0
x[1,7] 1
x[1,8] 0
x[1,9] 0
x[1,10] 1
x[1,11] 0
x[1,12] 0
x[1,13] 0
x[2,0] 1
x[2,1] 0
x[2,2] 0
x[2,3] 0
x[2,4] 0
x[2,5] 0
x[2,6] 0
x[2,7] 1
x[2,8] 0
x[2,9] 0
x[2,10] 1
x[2,11] 0
x[2,12] 0
x[2,13] 0
x[3,0] 1
x[3,1] 0
x[3,2] 0
x[3,3] 0
x[3,4] 0
x[3,5] 0
x[3,6] 0
x[3,7] 1
x[3,8] 0
x[3,9] 0
x[3,10] 1
x[3,11] 0
x[3,12] 0
x[3,13] 0
c[0,0,0] 0
c[0,0,1] 0
c[0,0,2] 0
c[0,0,3] 0
c[0,0,4] 0
c[0,0,5] 0
c[0,0,6] 0
c[0,0,7] 0
c[0,0,8] 0
c[0,0,9] 0
c[0,0,10] 0
c[0,0,11] 0
c[0,0,12] 0
c[0,0,13] 0
c[0,0,14] 0
c[0,0,15] 0
c[0,0,16] 0
c[0,0,17] 0
c[0,0,18] 0
c[0,0,19] 0
c[0,0,20] 0
c[0,0,21] 0
c[0,0,22] 0
c[0,0,23] 0
c[0,0,24] 1
c[0,1,0] 0
c[0,1,1] 0
c[0,1,2] 0
c[0,1,3] 0
c[0,1,4] 0
c[0,1,5] 0
c[0,1,6] 0
c[0,1,7] 0
c[0,1,8] 0
c[0,1,9] 0
c[0,1,10] 0
c[0,1,11] 0
c[0,1,12] 0
c[0,1,13] 0
c[0,1,14] 0
c[0,1,15] 0
c[0,1,16] 0
c[0,1,17] 0
c[0,1,18] 0
c[0,1,19] 0
c[0,1,20] 0
c[0,1,21] 0
c[0,1,22] 0
c[0,1,23] 0
c[0,1,24] 1
c[0,2,0] 0
c[0,2,1] 0
c[0,2,2] 0
c[0,2,3] 0
c[0,2,4] 0
c[0,2,5] 0
c[0,2,6] 0
c[0,2,7] 0
c[0,2,8] 0
c[0,2,9] 0
c[0,2,10] 0
c[0,2,11] 0
c[0,2,12] 0
c[0,2,13] 0
c[0,2,14] 0
c[0,2,15] 0
c[0,2,16] 0
c[0,2,17] 0
c[0,2,18] 0
c[0,2,19] 0
c[0,2,20] 0
c[0,2,21] 0
c[0,2,22] 0
c[0,2,23] 0
c[0,2,24] 1
c[0,3,0] 0
c[0,3,1] 0
c[0,3,2] 0
c[0,3,3] 0
c[0,3,4] 0
c[0,3,5] 0
c[0,3,6] 0
c[0,3,7] 0
c[0,3,8] 0
c[0,3,9] 0
c[0,3,10] 0
c[0,3,11] 0
c[0,3,12] 0
c[0,3,13] 0
c[0,3,14] 0
c[0,3,15] 0
c[0,3,16] 0
c[0,3,17] 0
c[0,3,18] 0
c[0,3,19] 0
c[0,3,20] 0
c[0,3,21] 0
c[0,3,22] 0
c[0,3,23] 0
c[0,3,24] 1
c[1,0,0] 0
c[1,0,1] 0
c[1,0,2] 0
c[1,0,3] 0
c[1,0,4] 0
c[1,0,5] 0
c[1,0,6] 0
c[1,0,7] 0
c[1,0,8] 0
c[1,0,9] 0
c[1,0,10] 0
c[1,0,11] 0
c[1,0,12] 0
c[1,0,13] 0
c[1,0,14] 0
c[1,0,15] 0
c[1,0,16] 0
c[1,0,17] 0
c[1,0,18] 0
c[1,0,19] 0
c[1,0,20] 0
c[1,0,21] 0
c[1,0,22] 0
c[1,0,23] 0
c[1,0,24] 1
c[1,1,0] 0
c[1,1,1] 0
c[1,1,2] 0
c[1,1,3] 0
c[1,1,4] 0
c[1,1,5] 0
c[1,1,6] 0
c[1,1,7] 0
c[1,1,8] 0
c[1,1,9] 0
c[1,1,10] 0
c[1,1,11] 0
c[1,1,12] 0
c[1,1,13] 0
c[1,1,14] 0
c[1,1,15] 0
c[1,1,16] 0
c[1,1,17] 0
c[1,1,18] 0
c[1,1,19] 0
c[1,1,20] 0
c[1,1,21] 0
c[1,1,22] 0
c[1,1,23] 0
c[1,1,24] 1
c[1,2,0] 0
c[1,2,1] 0
c[1,2,2] 0
c[1,2,3] 0
c[1,2,4] 0
c[1,2,5] 0
c[1,2,6] 0
c[1,2,7] 0
c[1,2,8] 0
c[1,2,9] 0
c[1,2,10] 0
c[1,2,11] 0
c[1,2,12] 0
c[1,2,13] 0
c[1,2,14] 0
c[1,2,15] 0
c[1,2,16] 0
c[1,2,17] 0
c[1,2,18] 0
c[1,2,19] 0
c[1,2,20] 0
c[1,2,21] 0
c[1,2,22] 0
c[1,2,23] 0
c[1,2,24] 1
c[1,3,0] 0
c[1,3,1] 0
c[1,3,2] 0
c[1,3,3] 0
c[1,3,4] 0
c[1,3,5] 0
c[1,3,6] 0
c[1,3,7] 0
c[1,3,8] 0
c[1,3,9] 0
c[1,3,10] 0
c[1,3,11] 0
c[1,3,12] 0
c[1,3,13] 0
c[1,3,14] 0
c[1,3,15] 0
c[1,3,16] 0
c[1,3,17] 0
c[1,3,18] 0
c[1,3,19] 0
c[1,3,20] 0
c[1,3,21] 0
c[1,3,22] 0
c[1,3,23] 0
c[1,3,24] 1
c[2,0,0] 0
c[2,0,1] 0
c[2,0,2] 0
c[2,0,3] 0
c[2,0,4] 0
c[2,0,5] 0
c[2,0,6] 0
c[2,0,7] 0
c[2,0,8] 0
c[2,0,9] 0
c[2,0,10] 0
c[2,0,11] 0
c[2,0,12] 0
c[2,0,13] 0
c[2,0,14] 0
c[2,0,15] 0
c[2,0,16] 0
c[2,0,17] 0
c[2,0,18] 0
c[2,0,19] 0
c[2,0,20] 0
c[2,0,21] 0
c[2,0,22] 0
c[2,0,23] 0
c[2,0,24] 1
c[2,1,0] 0
c[2,1,1] 0
c[2,1,2] 0
c[2,1,3] 0
c[2,1,4] 0
c[2,1,5] 0
c[2,1,6] 0
c[2,1,7] 0
c[2,1,8] 0
c[2,1,9] 0
c[2,1,10] 0
c[2,1,11] 0
c[2,1,12] 0
c[2,1,13] 0
c[2,1,14] 0
c[2,1,15] 0
c[2,1,16] 0
c[2,1,17] 0
c[2,1,18] 0
c[2,1,19] 0
c[2,1,20] 0
c[2,1,21] 0
c[2,1,22] 0
c[2,1,23] 0
c[2,1,24] 1
c[2,2,0] 0
c[2,2,1] 0
c[2,2,2] 0
c[2,2,3] 0
c[2,2,4] 0
c[2,2,5] 0
c[2,2,6] 0
c[2,2,7] 0
c[2,2,8] 0
c[2,2,9] 0
c[2,2,10] 0
c[2,2,11] 0
c[2,2,12] 0
c[2,2,13] 0
c[2,2,14] 0
c[2,2,15] 0
c[2,2,16] 0
c[2,2,17] 0
c[2,2,18] 0
c[2,2,19] 0
c[2,2,20] 0
c[2,2,21] 0
c[2,2,22] 0
c[2,2,23] 0
c[2,2,24] 1
c[2,3,0] 0
c[2,3,1] 0
c[2,3,2] 0
c[2,3,3] 0
c[2,3,4] 0
c[2,3,5] 0
c[2,3,6] 0
c[2,3,7] 0
c[2,3,8] 0
c[2,3,9] 0
c[2,3,10] 0
c[2,3,11] 0
c[2,3,12] 0
c[2,3,13] 0
c[2,3,14] 0
c[2,3,15] 0
c[2,3,16] 0
c[2,3,17] 0
c[2,3,18] 0
c[2,3,19] 0
c[2,3,20] 0
c[2,3,21] 0
c[2,3,22] 0
c[2,3,23] 0
c[2,3,24] 1
c[3,0,0] 0
c[3,0,1] 0
c[3,0,2] 0
c[3,0,3] 0
c[3,0,4] 0
c[3,0,5] 0
c[3,0,6] 0
c[3,0,7] 0
c[3,0,8] 0
c[3,0,9] 0
c[3,0,10] 0
c[3,0,11] 0
c[3,0,12] 0
c[3,0,13] 0
c[3,0,14] 0
c[3,0,15] 0
c[3,0,16] 0
c[3,0,17] 0
c[3,0,18] 0
c[3,0,19] 0
c[3,0,20] 0
c[3,0,21] 0
c[3,0,22] 0
c[3,0,23] 0
c[3,0,24] 1
c[3,1,0] 0
c[3,1,1] 0
c[3,1,2] 0
c[3,1,3] 0
c[3,1,4] 0
c[3,1,5] 0
c[3,1,6] 0
c[3,1,7] 0
c[3,1,8] 0
c[3,1,9] 0
c[3,1,10] 0
c[3,1,11] 0
c[3,1,12] 0
c[3,1,13] 0
c[3,1,14] 0
c[3,1,15] 0
c[3,1,16] 0
c[3,1,17] 0
c[3,1,18] 0
c[3,1,19] 0
c[3,1,20] 0
c[3,1,21] 0
c[3,1,22] 0
c[3,1,23] 0
c[3,1,24] 1
c[3,2,0] 0
c[3,2,1] 0
c[3,2,2] 0
c[3,2,3] 0
c[3,2,4] 0
c[3,2,5] 0
c[3,2,6] 0
c[3,2,7] 0
c[3,2,8] 0
c[3,2,9] 0
c[3,2,10] 0
c[3,2,11] 0
c[3,2,12] 0
c[3,2,13] 0
c[3,2,14] 0
c[3,2,15] 0
c[3,2,16] 0
c[3,2,17] 0
c[3,2,18] 0
c[3,2,19] 0
c[3,2,20] 0
c[3,2,21] 0
c[3,2,22] 0
c[3,2,23] 0
c[3,2,24] 1
c[3,3,0] 0
c[3,3,1] 0
c[3,3,2] 0
c[3,3,3] 0
c[3,3,4] 0
c[3,3,5] 0
c[3,3,6] 0
c[3,3,7] 0
c[3,3,8] 0
c[3,3,9] 0
c[3,3,10] 0
c[3,3,11] 0
c[3,3,12] 0
c[3,3,13] 0
c[3,3,14] 0
c[3,3,15] 0
c[3,3,16] 0
c[3,3,17] 0
c[3,3,18] 0
c[3,3,19] 0
c[3,3,20] 0
c[3,3,21] 0
c[3,3,22] 0
c[3,3,23] 0
c[3,3,24] 1
b[0,0,0] 0
b[0,0,1] 0
b[0,0,2] 0
b[0,0,3] 0
b[0,0,4] 0
b[0,0,5] 0
b[0,0,6] 0
b[0,0,7] 0
b[0,0,8] 0
b[0,0,9] 0
b[0,0,10] 0
b[0,0,11] 0
b[0,0,12] 0
b[0,0,13] 0
b[0,1,0] 0
b[0,1,1] 0
b[0,1,2] 0
b[0,1,3] 0
b[0,1,4] 0
b[0,1,5] 0
b[0,1,6] 0
b[0,1,7] 0
b[0,1,8] 0
b[0,1,9] 0
b[0,1,10] 0
b[0,1,11] 0
b[0,1,12] 0
b[0,1,13] 0
b[0,2,0] 0
b[0,2,1] 0
b[0,2,2] 0
b[0,2,3] 0
b[0,2,4] 0
b[0,2,5] 0
b[0,2,6] 0
b[0,2,7] 0
b[0,2,8] 0
b[0,2,9] 0
b[0,2,10] 0
b[0,2,11] 0
b[0,2,12] 0
b[0,2,13] 0
b[0,3,0] 0
b[0,3,1] 0
b[0,3,2] 0
b[0,3,3] 0
b[0,3,4] 0
b[0,3,5] 0
b[0,3,6] 0
b[0,3,7] 0
b[0,3,8] 0
b[0,3,9] 0
b[0,3,10] 0
b[0,3,11] 0
b[0,3,12] 0
b[0,3,13] 0
b[1,0,0] 0
b[1,0,1] 0
b[1,0,2] 0
b[1,0,3] 0
b[1,0,4] 0
b[1,0,5] 0
b[1,0,6] 0
b[1,0,7] 0
b[1,0,8] 0
b[1,0,9] 0
b[1,0,10] 0
b[1,0,11] 0
b[1,0,12] 0
b[1,0,13] 0
b[1,1,0] 0
b[1,1,1] 0
b[1,1,2] 0
b[1,1,3] 0
b[1,1,4] 0
b[1,1,5] 0
b[1,1,6] 0
b[1,1,7] 0
b[1,1,8] 0
b[1,1,9] 0
b[1,1,10] 0
b[1,1,11] 0
b[1,1,12] 0
b[1,1,13] 0
b[1,2,0] 0
b[1,2,1] 0
b[1,2,2] 0
b[1,2,3] 0
b[1,2,4] 0
b[1,2,5] 0
b[1,2,6] 0
b[1,2,7] 0
b[1,2,8] 0
b[1,2,9] 0
b[1,2,10] 0
b[1,2,11] 0
b[1,2,12] 0
b[1,2,13] 0
b[1,3,0] 0
b[1,3,1] 0
b[1,3,2] 0
b[1,3,3] 0
b[1,3,4] 0
b[1,3,5] 0
b[1,3,6] 0
b[1,3,7] 0
b[1,3,8] 0
b[1,3,9] 0
b[1,3,10] 0
b[1,3,11] 0
b[1,3,12] 0
b[1,3,13] 0
b[2,0,0] 0
b[2,0,1] 0
b[2,0,2] 0
b[2,0,3] 0
b[2,0,4] 0
b[2,0,5] 0
b[2,0,6] 0
b[2,0,7] 0
b[2,0,8] 0
b[2,0,9] 0
b[2,0,10] 0
b[2,0,11] 0
b[2,0,12] 0
b[2,0,13] 0
b[2,1,0] 0
b[2,1,1] 0
b[2,1,2] 0
b[2,1,3] 0
b[2,1,4] 0
b[2,1,5] 0
b[2,1,6] 0
b[2,1,7] 0
b[2,1,8] 0
b[2,1,9] 0
b[2,1,10] 0
b[2,1,11] 0
b[2,1,12] 0
b[2,1,13] 0
b[2,2,0] 0
b[2,2,1] 0
b[2,2,2] 0
b[2,2,3] 0
b[2,2,4] 0
b[2,2,5] 0
b[2,2,6] 0
b[2,2,7] 0
b[2,2,8] 0
b[2,2,9] 0
b[2,2,10] 0
b[2,2,11] 0
b[2,2,12] 0
b[2,2,13] 0
b[2,3,0] 0
b[2,3,1] 0
b[2,3,2] 0
b[2,3,3] 0
b[2,3,4] 0
b[2,3,5] 0
b[2,3,6] 0
b[2,3,7] 0
b[2,3,8] 0
b[2,3,9] 0
b[2,3,10] 0
b[2,3,11] 0
b[2,3,12] 0
b[2,3,13] 0
b[3,0,0] 0
b[3,0,1] 0
b[3,0,2] 0
b[3,0,3] 0
b[3,0,4] 0
b[3,0,5] 0
b[3,0,6] 0
b[3,0,7] 0
b[3,0,8] 0
b[3,0,9] 0
b[3,0,10] 0
b[3,0,11] 0
b[3,0,12] 0
b[3,0,13] 0
b[3,1,0] 0
b[3,1,1] 0
b[3,1,2] 0
b[3,1,3] 0
b[3,1,4] 0
b[3,1,5] 0
b[3,1,6] 0
b[3,1,7] 0
b[3,1,8] 0
b[3,1,9] 0
b[3,1,10] 0
b[3,1,11] 0
b[3,1,12] 0
b[3,1,13] 0
b[3,2,0] 0
b[3,2,1] 0
b[3,2,2] 0
b[3,2,3] 0
b[3,2,4] 0
b[3,2,5] 0
b[3,2,6] 0
b[3,2,7] 0
b[3,2,8] 0
b[3,2,9] 0
b[3,2,10] 0
b[3,2,11] 0
b[3,2,12] 0
b[3,2,13] 0
b[3,3,0] 0
b[3,3,1] 0
b[3,3,2] 0
b[3,3,3] 0
b[3,3,4] 0
b[3,3,5] 0
b[3,3,6] 0
b[3,3,7] 0
b[3,3,8] 0
b[3,3,9] 0
b[3,3,10] 0
b[3,3,11] 0
b[3,3,12] 0
b[3,3,13] 0
sp[0,0] 0.25
sp[0,1] 0.25
sp[0,2] 0.25
sp[0,3] 0.25
sp[1,0] 0.25
sp[1,1] 0.25
sp[1,2] 0.25
sp[1,3] 0.25
sp[2,0] 0.25
sp[2,1] 0.25
sp[2,2] 0.25
sp[2,3] 2.5000000000000405e-01
sp[3,0] 0.25
sp[3,1] 0.25
sp[3,2] 0.25
sp[3,3] 0.25
d_plus[0] 4
d_plus[1] 4
d_plus[2] 4
d_plus[3] 4
p[0,0] 24
p[0,1] 24
p[0,2] 24
p[0,3] 24
p[1,0] 24
p[1,1] 24
p[1,2] 24
p[1,3] 24
p[2,0] 24
p[2,1] 24
p[2,2] 24
p[2,3] 24
p[3,0] 24
p[3,1] 24
p[3,2] 24
p[3,3] 24
t[0,0] 0.25
t[0,1] 0.25
t[0,2] 2.4999999999999983e-01
t[0,3] 2.4999999999999450e-01
t[1,0] 0.25
t[1,1] 0.25
t[1,2] 2.4999999999999828e-01
t[1,3] 2.4999999999999739e-01
t[2,0] 2.4999999999999739e-01
t[2,1] 2.4999999999999983e-01
t[2,2] 2.4999999999999961e-01
t[2,3] 2.5000000000000411e-01
t[3,0] 2.4999999999999717e-01
t[3,1] 2.4999999999999606e-01
t[3,2] 2.4999999999999251e-01
t[3,3] 2.4999999999999950e-01
h_prime[0,0] 0
h_prime[0,1] 7.5114515513453428e-01
h_prime[0,2] 0
h_prime[0,3] 2.2695635227884983e-01
h_prime[0,4] 0
h_prime[0,5] 0
h_prime[0,6] 0.594247350605623
h_prime[0,7] 4.2931563144682960e-01
h_prime[0,8] 0
h_prime[0,9] 1.0254291793252923e+00
h_prime[0,10] 0
h_prime[0,11] 8.5803173549420020e-01
h_prime[0,12] 0
h_prime[0,13] 3.4095201463257113e-01
h_prime[0,14] 0
h_prime[0,15] 2.2653394488275126e-02
h_prime[0,16] 2.2426792532240591e-01
h_prime[0,17] 2.5312820002560471e-01
h_prime[0,18] 2.1608507872792929e-01
h_prime[0,19] 1.7163186639172164e-02
h_prime[0,20] 0
h_prime[0,21] 7.8084666299489158e-01
h_prime[0,22] 1.0753288743214107e-01
h_prime[0,23] 0
h_prime[0,24] 3.2189943698768775e-01
h_prime[0,25] 0
h_prime[0,26] 1.5734438595428704e-01
h_prime[0,27] 0
h_prime[0,28] 2.1274926037987668e-01
h_prime[0,29] 1.8674289771768923e-01
h_prime[0,30] 4.9581450408886335e-01
h_prime[0,31] 8.0607439396917269e-01
h_prime[1,0] 0
h_prime[1,1] 7.5114515513453506e-01
h_prime[1,2] 0
h_prime[1,3] 2.2695635227885019e-01
h_prime[1,4] 0
h_prime[1,5] 0
h_prime[1,6] 5.9424735060562361e-01
h_prime[1,7] 4.2931563144683016e-01
h_prime[1,8] 0
h_prime[1,9] 1.0254291793252936e+00
h_prime[1,10] 0
h_prime[1,11] 8.5803173549420153e-01
h_prime[1,12] 0
h_prime[1,13] 3.4095201463257147e-01
h_prime[1,14] 0
h_prime[1,15] 0.0226533944882752
h_prime[1,16] 2.2426792532240622e-01
h_prime[1,17] 2.5312820002560493e-01
h_prime[1,18] 2.1608507872792954e-01
h_prime[1,19] 1.7163186639172174e-02
h_prime[1,20] 0
h_prime[1,21] 7.8084666299489269e-01
h_prime[1,22] 1.0753288743214125e-01
h_prime[1,23] 0
h_prime[1,24] 3.2189943698768814e-01
h_prime[1,25] 0
h_prime[1,26] 1.5734438595428718e-01
h_prime[1,27] 0
h_prime[1,28] 2.1274926037987696e-01
h_prime[1,29] 1.8674289771768943e-01
h_prime[1,30] 4.9581450408886391e-01
h_prime[1,31] 0.806074393969174
h_prime[2,0] 0
h_prime[2,1] 0.751145155134539
h_prime[2,2] 0
h_prime[2,3] 2.2695635227885141e-01
h_prime[2,4] 0
h_prime[2,5] 0
h_prime[2,6] 5.9424735060562672e-01
h_prime[2,7] 4.2931563144683255e-01
h_prime[2,8] 0
h_prime[2,9] 1.0254291793252992e+00
h_prime[2,10] 0
h_prime[2,11] 8.5803173549420608e-01
h_prime[2,12] 0
h_prime[2,13] 3.4095201463257341e-01
h_prime[2,14] 0
h_prime[2,15] 2.2653394488275289e-02
h_prime[2,16] 2.2426792532240741e-01
h_prime[2,17] 2.5312820002560632e-01
h_prime[2,18] 2.1608507872793076e-01
h_prime[2,19] 1.7163186639172278e-02
h_prime[2,20] 0
h_prime[2,21] 7.8084666299489669e-01
h_prime[2,22] 1.0753288743214182e-01
h_prime[2,23] 0
h_prime[2,24] 3.2189943698768980e-01
h_prime[2,25] 0
h_prime[2,26] 1.5734438595428799e-01
h_prime[2,27] 0
h_prime[2,28] 2.1274926037987810e-01
h_prime[2,29] 1.8674289771769040e-01
h_prime[2,30] 4.9581450408886657e-01
h_prime[2,31] 8.0607439396917824e-01
h_prime[3,0] 0
h_prime[3,1] 7.5114515513452740e-01
h_prime[3,2] 0
h_prime[3,3] 2.2695635227884786e-01
h_prime[3,4] 0
h_prime[3,5] 0
h_prime[3,6] 5.9424735060561729e-01
h_prime[3,7] 4.2931563144682577e-01
h_prime[3,8] 0
h_prime[3,9] 1.0254291793252832e+00
h_prime[3,10] 0
h_prime[3,11] 8.5803173549419254e-01
h_prime[3,12] 0
h_prime[3,13] 3.4095201463256808e-01
h_prime[3,14] 0
h_prime[3,15] 2.2653394488274907e-02
h_prime[3,16] 2.2426792532240386e-01
h_prime[3,17] 2.5312820002560221e-01
h_prime[3,18] 2.1608507872792732e-01
h_prime[3,19] 1.7163186639172011e-02
h_prime[3,20] 0
h_prime[3,21] 7.8084666299488481e-01
h_prime[3,22] 1.0753288743214021e-01
h_prime[3,23] 0
h_prime[3,24] 3.2189943698768481e-01
h_prime[3,25] 0
h_prime[3,26] 1.5734438595428554e-01
h_prime[3,27] 0
h_prime[3,28] 2.1274926037987474e-01
h_prime[3,29] 1.8674289771768748e-01
h_prime[3,30] 4.9581450408885896e-01
h_prime[3,31] 8.0607439396916558e-01
x_0_0_0_GCN 0
s_0_0_0_GCN 9.8587796091553770e-03
z_0_0_0_GCN 0
x_0_0_1_GCN 0
s_0_0_1_GCN 1.7101232707495750e-01
z_0_0_1_GCN 0
x_0_0_2_GCN 8.1680715083463085e-03
s_0_0_2_GCN 0
z_0_0_2_GCN 1
x_0_0_3_GCN 0
s_0_0_3_GCN 2.3182731121743405e-02
z_0_0_3_GCN 0
x_0_0_4_GCN 3.6823214683677408e-01
s_0_0_4_GCN 0
z_0_0_4_GCN 1
x_0_0_5_GCN 4.2261034250253537e-01
s_0_0_5_GCN 0
z_0_0_5_GCN 1
x_0_0_6_GCN 4.2911167070274159e-01
s_0_0_6_GCN 0
z_0_0_6_GCN 1
x_0_0_7_GCN 0
s_0_0_7_GCN 7.0859882980590183e-01
z_0_0_7_GCN 0
x_0_0_8_GCN 1.2133195995898127e-03
s_0_0_8_GCN 0
z_0_0_8_GCN 1
x_0_0_9_GCN 4.5633423328406675e-01
s_0_0_9_GCN 0
z_0_0_9_GCN 1
x_0_0_10_GCN 2.4390572682025680e-01
s_0_0_10_GCN 0
z_0_0_10_GCN 1
x_0_0_11_GCN 0.439418509602565
s_0_0_11_GCN 0
z_0_0_11_GCN 1
x_0_0_12_GCN 6.6530347615485985e-01
s_0_0_12_GCN 0
z_0_0_12_GCN 1
x_0_0_13_GCN 1.8648171471426284e-01
s_0_0_13_GCN 0
z_0_0_13_GCN 1
x_0_0_14_GCN 0
s_0_0_14_GCN 4.5645149052137335e-01
z_0_0_14_GCN 0
x_0_0_15_GCN 0
s_0_0_15_GCN 3.7495229556228482e-01
z_0_0_15_GCN 0
x_0_0_16_GCN 6.2710978090766389e-01
s_0_0_16_GCN 0
z_0_0_16_GCN 1
x_0_0_17_GCN 4.0374376624827013e-01
s_0_0_17_GCN 0
z_0_0_17_GCN 1
x_0_0_18_GCN 0
s_0_0_18_GCN 7.4670766294006885e-01
z_0_0_18_GCN 0
x_0_0_19_GCN 2.9511317610712906e-02
s_0_0_19_GCN 0
z_0_0_19_GCN 1
x_0_0_20_GCN 1.1928983358669534e-01
s_0_0_20_GCN 0
z_0_0_20_GCN 1
x_0_0_21_GCN 0
s_0_0_21_GCN 2.7225963398816450e-01
z_0_0_21_GCN 0
x_0_0_22_GCN 0
s_0_0_22_GCN 1.9598800130186428e-01
z_0_0_22_GCN 0
x_0_0_23_GCN 2.9062816500658017e-01
s_0_0_23_GCN 0
z_0_0_23_GCN 1
x_0_0_24_GCN 0
s_0_0_24_GCN 1.0716721415455766e-02
z_0_0_24_GCN 0
x_0_0_25_GCN 3.1199631094935809e-01
s_0_0_25_GCN 0
z_0_0_25_GCN 1
x_0_0_26_GCN 6.0902852564730381e-03
s_0_0_26_GCN 0
z_0_0_26_GCN 1
x_0_0_27_GCN 4.2025080323223540e-01
s_0_0_27_GCN 0
z_0_0_27_GCN 1
x_0_0_28_GCN 0
s_0_0_28_GCN 3.7977340817447469e-01
z_0_0_28_GCN 0
x_0_0_29_GCN 1.2083373218770302e-01
s_0_0_29_GCN 0
z_0_0_29_GCN 1
x_0_0_30_GCN 0
s_0_0_30_GCN 3.9233878953384266e-01
z_0_0_30_GCN 0
x_0_0_31_GCN 0
s_0_0_31_GCN 3.5628212988380359e-01
z_0_0_31_GCN 0
x_0_1_0_GCN 0
s_0_1_0_GCN 9.8587796091573754e-03
z_0_1_0_GCN 0
x_0_1_1_GCN 0
s_0_1_1_GCN 1.7101232707495950e-01
z_0_1_1_GCN 0
x_0_1_2_GCN 8.1680715083467526e-03
s_0_1_2_GCN 0
z_0_1_2_GCN 1
x_0_1_3_GCN 0
s_0_1_3_GCN 2.3182731121744737e-02
z_0_1_3_GCN 0
x_0_1_4_GCN 3.6823214683677619e-01
s_0_1_4_GCN 0
z_0_1_4_GCN 1
x_0_1_5_GCN 4.2261034250253882e-01
s_0_1_5_GCN 0
z_0_1_5_GCN 1
x_0_1_6_GCN 4.2911167070274314e-01
s_0_1_6_GCN 0
z_0_1_6_GCN 1
x_0_1_7_GCN 0
s_0_1_7_GCN 7.0859882980590327e-01
z_0_1_7_GCN 0
x_0_1_8_GCN 1.2133195995922552e-03
s_0_1_8_GCN 0
z_0_1_8_GCN 1
x_0_1_9_GCN 4.5633423328406669e-01
s_0_1_9_GCN 0
z_0_1_9_GCN 1
x_0_1_10_GCN 2.4390572682025749e-01
s_0_1_10_GCN 0
z_0_1_10_GCN 1
x_0_1_11_GCN 4.3941850960256629e-01
s_0_1_11_GCN 0
z_0_1_11_GCN 1
x_0_1_12_GCN 6.6530347615486229e-01
s_0_1_12_GCN 0
z_0_1_12_GCN 1
x_0_1_13_GCN 1.8648171471426389e-01
s_0_1_13_GCN 0
z_0_1_13_GCN 1
x_0_1_14_GCN 0
s_0_1_14_GCN 4.5645149052137590e-01
z_0_1_14_GCN 0
x_0_1_15_GCN 0
s_0_1_15_GCN 3.7495229556228560e-01
z_0_1_15_GCN 0
x_0_1_16_GCN 6.2710978090766578e-01
s_0_1_16_GCN 0
z_0_1_16_GCN 1
x_0_1_17_GCN 4.0374376624827113e-01
s_0_1_17_GCN 0
z_0_1_17_GCN 1
x_0_1_18_GCN 0
s_0_1_18_GCN 7.4670766294006929e-01
z_0_1_18_GCN 0
x_0_1_19_GCN 2.9511317610714682e-02
s_0_1_19_GCN 0
z_0_1_19_GCN 1
x_0_1_20_GCN 1.1928983358669563e-01
s_0_1_20_GCN 0
z_0_1_20_GCN 1
x_0_1_21_GCN 0
s_0_1_21_GCN 2.7225963398816488e-01
z_0_1_21_GCN 0
x_0_1_22_GCN 0
s_0_1_22_GCN 1.9598800130186550e-01
z_0_1_22_GCN 0
x_0_1_23_GCN 2.9062816500658017e-01
s_0_1_23_GCN 0
z_0_1_23_GCN 1
x_0_1_24_GCN 0
s_0_1_24_GCN 1.0716721415457542e-02
z_0_1_24_GCN 0
x_0_1_25_GCN 3.1199631094935892e-01
s_0_1_25_GCN 0
z_0_1_25_GCN 1
x_0_1_26_GCN 6.0902852564737042e-03
s_0_1_26_GCN 0
z_0_1_26_GCN 1
x_0_1_27_GCN 4.2025080323223518e-01
s_0_1_27_GCN 0
z_0_1_27_GCN 1
x_0_1_28_GCN 0
s_0_1_28_GCN 3.7977340817447730e-01
z_0_1_28_GCN 0
x_0_1_29_GCN 1.2083373218770416e-01
s_0_1_29_GCN 0
z_0_1_29_GCN 1
x_0_1_30_GCN 0
s_0_1_30_GCN 3.9233878953384360e-01
z_0_1_30_GCN 0
x_0_1_31_GCN 0
s_0_1_31_GCN 3.5628212988380437e-01
z_0_1_31_GCN 0
x_0_2_0_GCN 0
s_0_2_0_GCN 9.8587796091704760e-03
z_0_2_0_GCN 0
x_0_2_1_GCN 0
s_0_2_1_GCN 1.7101232707503311e-01
z_0_2_1_GCN 0
x_0_2_2_GCN 8.1680715083631839e-03
s_0_2_2_GCN 0
z_0_2_2_GCN 1
x_0_2_3_GCN 0
s_0_2_3_GCN 2.3182731121758129e-02
z_0_2_3_GCN 0
x_0_2_4_GCN 3.6823214683679623e-01
s_0_2_4_GCN 0
z_0_2_4_GCN 1
x_0_2_5_GCN 4.2261034250255880e-01
s_0_2_5_GCN 0
z_0_2_5_GCN 1
x_0_2_6_GCN 4.2911167070272332e-01
s_0_2_6_GCN 0
z_0_2_6_GCN 1
x_0_2_7_GCN 0
s_0_2_7_GCN 7.0859882980588818e-01
z_0_2_7_GCN 0
x_0_2_8_GCN 1.2133195996013590e-03
s_0_2_8_GCN 0
z_0_2_8_GCN 1
x_0_2_9_GCN 4.5633423328404010e-01
s_0_2_9_GCN 0
z_0_2_9_GCN 1
x_0_2_10_GCN 2.4390572682024536e-01
s_0_2_10_GCN 0
z_0_2_10_GCN 1
x_0_2_11_GCN 4.3941850960256235e-01
s_0_2_11_GCN 0
z_0_2_11_GCN 1
x_0_2_12_GCN 0.665303476154839
s_0_2_12_GCN 0
z_0_2_12_GCN 1
x_0_2_13_GCN 1.8648171471428937e-01
s_0_2_13_GCN 0
z_0_2_13_GCN 1
x_0_2_14_GCN 0
s_0_2_14_GCN 4.5645149052139727e-01
z_0_2_14_GCN 0
x_0_2_15_GCN 0
s_0_2_15_GCN 3.7495229556227244e-01
z_0_2_15_GCN 0
x_0_2_16_GCN 6.2710978090765435e-01
s_0_2_16_GCN 0
z_0_2_16_GCN 1
x_0_2_17_GCN 4.0374376624825076e-01
s_0_2_17_GCN 0
z_0_2_17_GCN 1
x_0_2_18_GCN 0
s_0_2_18_GCN 7.4670766294005653e-01
z_0_2_18_GCN 0
x_0_2_19_GCN 2.9511317610724341e-02
s_0_2_19_GCN 0
z_0_2_19_GCN 1
x_0_2_20_GCN 1.1928983358667726e-01
s_0_2_20_GCN 0
z_0_2_20_GCN 1
x_0_2_21_GCN 0
s_0_2_21_GCN 2.7225963398815684e-01
z_0_2_21_GCN 0
x_0_2_22_GCN 0
s_0_2_22_GCN 1.9598800130187441e-01
z_0_2_22_GCN 0
x_0_2_23_GCN 2.9062816500660704e-01
s_0_2_23_GCN 0
z_0_2_23_GCN 1
x_0_2_24_GCN 0
s_0_2_24_GCN 0.0107167214154813
z_0_2_24_GCN 0
x_0_2_25_GCN 3.1199631094934571e-01
s_0_2_25_GCN 0
z_0_2_25_GCN 1
x_0_2_26_GCN 6.0902852564816978e-03
s_0_2_26_GCN 0
z_0_2_26_GCN 1
x_0_2_27_GCN 4.2025080323221820e-01
s_0_2_27_GCN 0
z_0_2_27_GCN 1
x_0_2_28_GCN 0
s_0_2_28_GCN 3.7977340817448990e-01
z_0_2_28_GCN 0
x_0_2_29_GCN 1.2083373218772606e-01
s_0_2_29_GCN 0
z_0_2_29_GCN 1
x_0_2_30_GCN 0
s_0_2_30_GCN 3.9233878953383866e-01
z_0_2_30_GCN 0
x_0_2_31_GCN 0
s_0_2_31_GCN 3.5628212988378583e-01
z_0_2_31_GCN 0
x_0_3_0_GCN 0
s_0_3_0_GCN 0.00985877960917314
z_0_3_0_GCN 0
x_0_3_1_GCN 0
s_0_3_1_GCN 1.7101232707497016e-01
z_0_3_1_GCN 0
x_0_3_2_GCN 8.1680715083645161e-03
s_0_3_2_GCN 0
z_0_3_2_GCN 1
x_0_3_3_GCN 0
s_0_3_3_GCN 2.3182731121757172e-02
z_0_3_3_GCN 0
x_0_3_4_GCN 3.6823214683683791e-01
s_0_3_4_GCN 0
z_0_3_4_GCN 1
x_0_3_5_GCN 4.2261034250261709e-01
s_0_3_5_GCN 0
z_0_3_5_GCN 1
x_0_3_6_GCN 4.2911167070271272e-01
s_0_3_6_GCN 0
z_0_3_6_GCN 1
x_0_3_7_GCN 0
s_0_3_7_GCN 7.0859882980587152e-01
z_0_3_7_GCN 0
x_0_3_8_GCN 1.2133195996046897e-03
s_0_3_8_GCN 0
z_0_3_8_GCN 1
x_0_3_9_GCN 4.5633423328395734e-01
s_0_3_9_GCN 0
z_0_3_9_GCN 1
x_0_3_10_GCN 2.4390572682023925e-01
s_0_3_10_GCN 0
z_0_3_10_GCN 1
x_0_3_11_GCN 4.3941850960255169e-01
s_0_3_11_GCN 0
z_0_3_11_GCN 1
x_0_3_12_GCN 6.6530347615482333e-01
s_0_3_12_GCN 0
z_0_3_12_GCN 1
x_0_3_13_GCN 1.8648171471428110e-01
s_0_3_13_GCN 0
z_0_3_13_GCN 1
x_0_3_14_GCN 0
s_0_3_14_GCN 4.5645149052144585e-01
z_0_3_14_GCN 0
x_0_3_15_GCN 0
s_0_3_15_GCN 3.7495229556221654e-01
z_0_3_15_GCN 0
x_0_3_16_GCN 6.2710978090763958e-01
s_0_3_16_GCN 0
z_0_3_16_GCN 1
x_0_3_17_GCN 4.0374376624819025e-01
s_0_3_17_GCN 0
z_0_3_17_GCN 1
x_0_3_18_GCN 0
s_0_3_18_GCN 0.746707662940038
z_0_3_18_GCN 0
x_0_3_19_GCN 2.9511317610724563e-02
s_0_3_19_GCN 0
z_0_3_19_GCN 1
x_0_3_20_GCN 1.1928983358667697e-01
s_0_3_20_GCN 0
z_0_3_20_GCN 1
x_0_3_21_GCN 0
s_0_3_21_GCN 2.7225963398811243e-01
z_0_3_21_GCN 0
x_0_3_22_GCN 0
s_0_3_22_GCN 1.9598800130189753e-01
z_0_3_22_GCN 0
x_0_3_23_GCN 2.9062816500666006e-01
s_0_3_23_GCN 0
z_0_3_23_GCN 1
x_0_3_24_GCN 0
s_0_3_24_GCN 1.0716721415482189e-02
z_0_3_24_GCN 0
x_0_3_25_GCN 3.1199631094933933e-01
s_0_3_25_GCN 0
z_0_3_25_GCN 1
x_0_3_26_GCN 6.0902852564828081e-03
s_0_3_26_GCN 0
z_0_3_26_GCN 1
x_0_3_27_GCN 0.42025080323221
s_0_3_27_GCN 0
z_0_3_27_GCN 1
x_0_3_28_GCN 0
s_0_3_28_GCN 3.7977340817453625e-01
z_0_3_28_GCN 0
x_0_3_29_GCN 1.2083373218777138e-01
s_0_3_29_GCN 0
z_0_3_29_GCN 1
x_0_3_30_GCN 0
s_0_3_30_GCN 3.9233878953382934e-01
z_0_3_30_GCN 0
x_0_3_31_GCN 0
s_0_3_31_GCN 3.5628212988372776e-01
z_0_3_31_GCN 0
x_1_0_0_GCN 0
s_1_0_0_GCN 1.8594416205292216e-01
z_1_0_0_GCN 0
x_1_0_1_GCN 2.9477382768172194e-01
s_1_0_1_GCN 0
z_1_0_1_GCN 1
x_1_0_2_GCN 0
s_1_0_2_GCN 6.2818360442738516e-02
z_1_0_2_GCN 0
x_1_0_3_GCN 0
s_1_0_3_GCN 1.8658928277194703e-01
z_1_0_3_GCN 0
x_1_0_4_GCN 5.2688985699915047e-01
s_1_0_4_GCN 0
z_1_0_4_GCN 1
x_1_0_5_GCN 0.191858102011982
s_1_0_5_GCN 0
z_1_0_5_GCN 1
x_1_0_6_GCN 0
s_1_0_6_GCN 7.5959627486715953e-01
z_1_0_6_GCN 0
x_1_0_7_GCN 0
s_1_0_7_GCN 6.3011990475503366e-01
z_1_0_7_GCN 0
x_1_0_8_GCN 0
s_1_0_8_GCN 4.1227106942786457e-01
z_1_0_8_GCN 0
x_1_0_9_GCN 0
s_1_0_9_GCN 2.5003196205190203e-01
z_1_0_9_GCN 0
x_1_0_10_GCN 8.0707594005166083e-01
s_1_0_10_GCN 0
z_1_0_10_GCN 1
x_1_0_11_GCN 6.7438638625425629e-01
s_1_0_11_GCN 0
z_1_0_11_GCN 1
x_1_0_12_GCN 2.2994108209549849e-01
s_1_0_12_GCN 0
z_1_0_12_GCN 1
x_1_0_13_GCN 0
s_1_0_13_GCN 1.9009331290807754e-01
z_1_0_13_GCN 0
x_1_0_14_GCN 1.0486011968185785e-01
s_1_0_14_GCN 0
z_1_0_14_GCN 1
x_1_0_15_GCN 0
s_1_0_15_GCN 5.3084885543620519e-01
z_1_0_15_GCN 0
x_1_0_16_GCN 3.2980082023056828e-01
s_1_0_16_GCN 0
z_1_0_16_GCN 1
x_1_0_17_GCN 1.4965547434083323e-01
s_1_0_17_GCN 0
z_1_0_17_GCN 1
x_1_0_18_GCN 0
s_1_0_18_GCN 1.2727990752367904e-01
z_1_0_18_GCN 0
x_1_0_19_GCN 3.6879231528157941e-01
s_1_0_19_GCN 0
z_1_0_19_GCN 1
x_1_0_20_GCN 0
s_1_0_20_GCN 5.5396123562213739e-02
z_1_0_20_GCN 0
x_1_0_21_GCN 6.5917360584203089e-01
s_1_0_21_GCN 0
z_1_0_21_GCN 1
x_1_0_22_GCN 0.0326029585974128
s_1_0_22_GCN 0
z_1_0_22_GCN 1
x_1_0_23_GCN 0
s_1_0_23_GCN 4.3906524476611253e-03
z_1_0_23_GCN 0
x_1_0_24_GCN 4.5782114772385973e-01
s_1_0_24_GCN 0
z_1_0_24_GCN 1
x_1_0_25_GCN 1.6112649766246617e-01
s_1_0_25_GCN 0
z_1_0_25_GCN 1
x_1_0_26_GCN 0
s_1_0_26_GCN 7.3483875396148271e-02
z_1_0_26_GCN 0
x_1_0_27_GCN 0
s_1_0_27_GCN 4.3642340321827638e-01
z_1_0_27_GCN 0
x_1_0_28_GCN 7.2989654011789729e-01
s_1_0_28_GCN 0
z_1_0_28_GCN 1
x_1_0_29_GCN 1.2250113526695972e-02
s_1_0_29_GCN 0
z_1_0_29_GCN 1
x_1_0_30_GCN 4.4411868564709917e-01
s_1_0_30_GCN 0
z_1_0_30_GCN 1
x_1_0_31_GCN 0
s_1_0_31_GCN 2.8696032081361023e-01
z_1_0_31_GCN 0
x_1_1_0_GCN 0
s_1_1_0_GCN 1.8594416205286407e-01
z_1_1_0_GCN 0
x_1_1_1_GCN 2.9477382768156329e-01
s_1_1_1_GCN 0
z_1_1_1_GCN 1
x_1_1_2_GCN 0
s_1_1_2_GCN 6.2818360442738572e-02
z_1_1_2_GCN 0
x_1_1_3_GCN 0
s_1_1_3_GCN 1.8658928277197684e-01
z_1_1_3_GCN 0
x_1_1_4_GCN 5.2688985699915114e-01
s_1_1_4_GCN 0
z_1_1_4_GCN 1
x_1_1_5_GCN 1.9185810201242592e-01
s_1_1_5_GCN 0
z_1_1_5_GCN 1
x_1_1_6_GCN 0
s_1_1_6_GCN 7.5959627486697068e-01
z_1_1_6_GCN 0
x_1_1_7_GCN 0
s_1_1_7_GCN 6.3011990475503488e-01
z_1_1_7_GCN 0
x_1_1_8_GCN 0
s_1_1_8_GCN 4.1227106942779262e-01
z_1_1_8_GCN 0
x_1_1_9_GCN 0
s_1_1_9_GCN 2.5003196205190237e-01
z_1_1_9_GCN 0
x_1_1_10_GCN 8.0707594005161076e-01
s_1_1_10_GCN 0
z_1_1_10_GCN 1
x_1_1_11_GCN 6.7438638625421532e-01
s_1_1_11_GCN 0
z_1_1_11_GCN 1
x_1_1_12_GCN 2.2994108209535977e-01
s_1_1_12_GCN 0
z_1_1_12_GCN 1
x_1_1_13_GCN 0
s_1_1_13_GCN 1.9009331290813702e-01
z_1_1_13_GCN 0
x_1_1_14_GCN 1.0486011968181777e-01
s_1_1_14_GCN 0
z_1_1_14_GCN 1
x_1_1_15_GCN 0
s_1_1_15_GCN 5.3084885543611049e-01
z_1_1_15_GCN 0
x_1_1_16_GCN 3.2980082023055174e-01
s_1_1_16_GCN 0
z_1_1_16_GCN 1
x_1_1_17_GCN 1.4965547434101123e-01
s_1_1_17_GCN 0
z_1_1_17_GCN 1
x_1_1_18_GCN 0
s_1_1_18_GCN 1.2727990752376925e-01
z_1_1_18_GCN 0
x_1_1_19_GCN 3.6879231528146983e-01
s_1_1_19_GCN 0
z_1_1_19_GCN 1
x_1_1_20_GCN 0
s_1_1_20_GCN 5.5396123562122146e-02
z_1_1_20_GCN 0
x_1_1_21_GCN 6.5917360584177376e-01
s_1_1_21_GCN 0
z_1_1_21_GCN 1
x_1_1_22_GCN 3.2602958597487408e-02
s_1_1_22_GCN 0
z_1_1_22_GCN 1
x_1_1_23_GCN 0
s_1_1_23_GCN 4.3906524477872466e-03
z_1_1_23_GCN 0
x_1_1_24_GCN 4.5782114772395738e-01
s_1_1_24_GCN 0
z_1_1_24_GCN 1
x_1_1_25_GCN 1.6112649766234963e-01
s_1_1_25_GCN 0
z_1_1_25_GCN 1
x_1_1_26_GCN 0
s_1_1_26_GCN 7.3483875396219187e-02
z_1_1_26_GCN 0
x_1_1_27_GCN 0
s_1_1_27_GCN 4.3642340321827677e-01
z_1_1_27_GCN 0
x_1_1_28_GCN 7.2989654011776262e-01
s_1_1_28_GCN 0
z_1_1_28_GCN 1
x_1_1_29_GCN 1.2250113526609582e-02
s_1_1_29_GCN 0
z_1_1_29_GCN 1
x_1_1_30_GCN 4.4411868564723750e-01
s_1_1_30_GCN 0
z_1_1_30_GCN 1
x_1_1_31_GCN 0
s_1_1_31_GCN 2.8696032081373329e-01
z_1_1_31_GCN 0
x_1_2_0_GCN 0
s_1_2_0_GCN 1.8594416205258421e-01
z_1_2_0_GCN 0
x_1_2_1_GCN 2.9477382768120863e-01
s_1_2_1_GCN 0
z_1_2_1_GCN 1
x_1_2_2_GCN 0
s_1_2_2_GCN 0.0628183604427389
z_1_2_2_GCN 0
x_1_2_3_GCN 0
s_1_2_3_GCN 1.8658928277159312e-01
z_1_2_3_GCN 0
x_1_2_4_GCN 5.2688985699915425e-01
s_1_2_4_GCN 0
z_1_2_4_GCN 1
x_1_2_5_GCN 1.9185810201279591e-01
s_1_2_5_GCN 0
z_1_2_5_GCN 1
x_1_2_6_GCN 0
s_1_2_6_GCN 7.5959627486671277e-01
z_1_2_6_GCN 0
x_1_2_7_GCN 0
s_1_2_7_GCN 6.3011990475503776e-01
z_1_2_7_GCN 0
x_1_2_8_GCN 0
s_1_2_8_GCN 4.1227106942744696e-01
z_1_2_8_GCN 0
x_1_2_9_GCN 0
s_1_2_9_GCN 2.5003196205190364e-01
z_1_2_9_GCN 0
x_1_2_10_GCN 8.0707594005133820e-01
s_1_2_10_GCN 0
z_1_2_10_GCN 1
x_1_2_11_GCN 6.7438638625393987e-01
s_1_2_11_GCN 0
z_1_2_11_GCN 1
x_1_2_12_GCN 2.2994108209495537e-01
s_1_2_12_GCN 0
z_1_2_12_GCN 1
x_1_2_13_GCN 0
s_1_2_13_GCN 1.9009331290777157e-01
z_1_2_13_GCN 0
x_1_2_14_GCN 1.0486011968143970e-01
s_1_2_14_GCN 0
z_1_2_14_GCN 1
x_1_2_15_GCN 0
s_1_2_15_GCN 5.3084885543565175e-01
z_1_2_15_GCN 0
x_1_2_16_GCN 3.2980082022996443e-01
s_1_2_16_GCN 0
z_1_2_16_GCN 1
x_1_2_17_GCN 1.4965547434143603e-01
s_1_2_17_GCN 0
z_1_2_17_GCN 1
x_1_2_18_GCN 0
s_1_2_18_GCN 1.2727990752410456e-01
z_1_2_18_GCN 0
x_1_2_19_GCN 3.6879231528097417e-01
s_1_2_19_GCN 0
z_1_2_19_GCN 1
x_1_2_20_GCN 0
s_1_2_20_GCN 5.5396123561703356e-02
z_1_2_20_GCN 0
x_1_2_21_GCN 6.5917360584233486e-01
s_1_2_21_GCN 0
z_1_2_21_GCN 1
x_1_2_22_GCN 3.2602958597909293e-02
s_1_2_22_GCN 0
z_1_2_22_GCN 1
x_1_2_23_GCN 0
s_1_2_23_GCN 4.3906524481434062e-03
z_1_2_23_GCN 0
x_1_2_24_GCN 4.5782114772427263e-01
s_1_2_24_GCN 0
z_1_2_24_GCN 1
x_1_2_25_GCN 1.6112649766201959e-01
s_1_2_25_GCN 0
z_1_2_25_GCN 1
x_1_2_26_GCN 0
s_1_2_26_GCN 7.3483875396530035e-02
z_1_2_26_GCN 0
x_1_2_27_GCN 0
s_1_2_27_GCN 4.3642340321827916e-01
z_1_2_27_GCN 0
x_1_2_28_GCN 7.2989654011737259e-01
s_1_2_28_GCN 0
z_1_2_28_GCN 1
x_1_2_29_GCN 1.2250113526335062e-02
s_1_2_29_GCN 0
z_1_2_29_GCN 1
x_1_2_30_GCN 4.4411868564783008e-01
s_1_2_30_GCN 0
z_1_2_30_GCN 1
x_1_2_31_GCN 0
s_1_2_31_GCN 2.8696032081402451e-01
z_1_2_31_GCN 0
x_1_3_0_GCN 0
s_1_3_0_GCN 1.8594416204853556e-01
z_1_3_0_GCN 0
x_1_3_1_GCN 2.9477382768084437e-01
s_1_3_1_GCN 0
z_1_3_1_GCN 1
x_1_3_2_GCN 0
s_1_3_2_GCN 6.2818360444977517e-02
z_1_3_2_GCN 0
x_1_3_3_GCN 0
s_1_3_3_GCN 1.8658928277124540e-01
z_1_3_3_GCN 0
x_1_3_4_GCN 5.2688985699661994e-01
s_1_3_4_GCN 0
z_1_3_4_GCN 1
x_1_3_5_GCN 1.9185810201869058e-01
s_1_3_5_GCN 0
z_1_3_5_GCN 1
x_1_3_6_GCN 0
s_1_3_6_GCN 7.5959627486668091e-01
z_1_3_6_GCN 0
x_1_3_7_GCN 0
s_1_3_7_GCN 6.3011990475733781e-01
z_1_3_7_GCN 0
x_1_3_8_GCN 0
s_1_3_8_GCN 4.1227106942514852e-01
z_1_3_8_GCN 0
x_1_3_9_GCN 0
s_1_3_9_GCN 2.5003196205416112e-01
z_1_3_9_GCN 0
x_1_3_10_GCN 0.807075940051287
s_1_3_10_GCN 0
z_1_3_10_GCN 1
x_1_3_11_GCN 6.7438638624921343e-01
s_1_3_11_GCN 0
z_1_3_11_GCN 1
x_1_3_12_GCN 2.2994108209482431e-01
s_1_3_12_GCN 0
z_1_3_12_GCN 1
x_1_3_13_GCN 0
s_1_3_13_GCN 1.9009331290757348e-01
z_1_3_13_GCN 0
x_1_3_14_GCN 1.0486011967900830e-01
s_1_3_14_GCN 0
z_1_3_14_GCN 1
x_1_3_15_GCN 0
s_1_3_15_GCN 5.3084885543556759e-01
z_1_3_15_GCN 0
x_1_3_16_GCN 3.2980082022977686e-01
s_1_3_16_GCN 0
z_1_3_16_GCN 1
x_1_3_17_GCN 1.4965547434621634e-01
s_1_3_17_GCN 0
z_1_3_17_GCN 1
x_1_3_18_GCN 0
s_1_3_18_GCN 1.2727990752437682e-01
z_1_3_18_GCN 0
x_1_3_19_GCN 3.6879231527569339e-01
s_1_3_19_GCN 0
z_1_3_19_GCN 1
x_1_3_20_GCN 0
s_1_3_20_GCN 5.5396123559614541e-02
z_1_3_20_GCN 0
x_1_3_21_GCN 6.5917360584859153e-01
s_1_3_21_GCN 0
z_1_3_21_GCN 1
x_1_3_22_GCN 3.2602958602329681e-02
s_1_3_22_GCN 0
z_1_3_22_GCN 1
x_1_3_23_GCN 0
s_1_3_23_GCN 4.3906524510393110e-03
z_1_3_23_GCN 0
x_1_3_24_GCN 4.5782114772946486e-01
s_1_3_24_GCN 0
z_1_3_24_GCN 1
x_1_3_25_GCN 1.6112649765734927e-01
s_1_3_25_GCN 0
z_1_3_25_GCN 1
x_1_3_26_GCN 0
s_1_3_26_GCN 0.073483875396786
z_1_3_26_GCN 0
x_1_3_27_GCN 0
s_1_3_27_GCN 4.3642340322049178e-01
z_1_3_27_GCN 0
x_1_3_28_GCN 7.2989654011727645e-01
s_1_3_28_GCN 0
z_1_3_28_GCN 1
x_1_3_29_GCN 1.2250113524518305e-02
s_1_3_29_GCN 0
z_1_3_29_GCN 1
x_1_3_30_GCN 0.444118685650339
s_1_3_30_GCN 0
z_1_3_30_GCN 1
x_1_3_31_GCN 0
s_1_3_31_GCN 2.8696032081731210e-01
z_1_3_31_GCN 0
x_2_0_0_GCN 0
s_2_0_0_GCN 3.4184342901198705e-01
z_2_0_0_GCN 0
x_2_0_1_GCN 0
s_2_0_1_GCN 0
z_2_0_1_GCN 1
x_2_0_2_GCN 0
s_2_0_2_GCN 2.8733991826493882e-01
z_2_0_2_GCN 0
x_2_0_3_GCN 0
s_2_0_3_GCN 0
z_2_0_3_GCN 1
x_2_0_4_GCN 0
s_2_0_4_GCN 1.4340869043271942e-01
z_2_0_4_GCN 0
x_2_0_5_GCN 0
s_2_0_5_GCN 2.4854146172655769e-01
z_2_0_5_GCN 0
x_2_0_6_GCN 0
s_2_0_6_GCN 0
z_2_0_6_GCN 1
x_2_0_7_GCN 0
s_2_0_7_GCN 0
z_2_0_7_GCN 1
x_2_0_8_GCN 0
s_2_0_8_GCN 8.2701197606177412e-01
z_2_0_8_GCN 0
x_2_0_9_GCN 0
s_2_0_9_GCN 0
z_2_0_9_GCN 1
x_2_0_10_GCN 0
s_2_0_10_GCN 5.7202118027716931e-01
z_2_0_10_GCN 0
x_2_0_11_GCN 0
s_2_0_11_GCN 0
z_2_0_11_GCN 1
x_2_0_12_GCN 0
s_2_0_12_GCN 6.3893118649588687e-01
z_2_0_12_GCN 0
x_2_0_13_GCN 0
s_2_0_13_GCN 0
z_2_0_13_GCN 1
x_2_0_14_GCN 0
s_2_0_14_GCN 2.4839194091279815e-01
z_2_0_14_GCN 0
x_2_0_15_GCN 0
s_2_0_15_GCN 0
z_2_0_15_GCN 1
x_2_0_16_GCN 0
s_2_0_16_GCN 0
z_2_0_16_GCN 1
x_2_0_17_GCN 0
s_2_0_17_GCN 0
z_2_0_17_GCN 1
x_2_0_18_GCN 0
s_2_0_18_GCN 0
z_2_0_18_GCN 1
x_2_0_19_GCN 0
s_2_0_19_GCN 0
z_2_0_19_GCN 1
x_2_0_20_GCN 0
s_2_0_20_GCN 5.6548037376595819e-02
z_2_0_20_GCN 0
x_2_0_21_GCN 0
s_2_0_21_GCN 0
z_2_0_21_GCN 1
x_2_0_22_GCN 0
s_2_0_22_GCN 0
z_2_0_22_GCN 1
x_2_0_23_GCN 0
s_2_0_23_GCN 4.4303040941478944e-01
z_2_0_23_GCN 0
x_2_0_24_GCN 0
s_2_0_24_GCN 0
z_2_0_24_GCN 1
x_2_0_25_GCN 0
s_2_0_25_GCN 4.0309819020299087e-01
z_2_0_25_GCN 0
x_2_0_26_GCN 0
s_2_0_26_GCN 0
z_2_0_26_GCN 1
x_2_0_27_GCN 0
s_2_0_27_GCN 5.6699827587204676e-01
z_2_0_27_GCN 0
x_2_0_28_GCN 0
s_2_0_28_GCN 0
z_2_0_28_GCN 1
x_2_0_29_GCN 0
s_2_0_29_GCN 0
z_2_0_29_GCN 1
x_2_0_30_GCN 0
s_2_0_30_GCN 0
z_2_0_30_GCN 1
x_2_0_31_GCN 0
s_2_0_31_GCN 0
z_2_0_31_GCN 1
x_2_1_0_GCN 0
s_2_1_0_GCN 3.4184342901198750e-01
z_2_1_0_GCN 0
x_2_1_1_GCN 0
s_2_1_1_GCN 0
z_2_1_1_GCN 1
x_2_1_2_GCN 0
s_2_1_2_GCN 2.8733991826493910e-01
z_2_1_2_GCN 0
x_2_1_3_GCN 0
s_2_1_3_GCN 0
z_2_1_3_GCN 1
x_2_1_4_GCN 0
s_2_1_4_GCN 1.4340869043271967e-01
z_2_1_4_GCN 0
x_2_1_5_GCN 0
s_2_1_5_GCN 0.248541461726558
z_2_1_5_GCN 0
x_2_1_6_GCN 0
s_2_1_6_GCN 0
z_2_1_6_GCN 1
x_2_1_7_GCN 0
s_2_1_7_GCN 0
z_2_1_7_GCN 1
x_2_1_8_GCN 0
s_2_1_8_GCN 0.827011976061775
z_2_1_8_GCN 0
x_2_1_9_GCN 0
s_2_1_9_GCN 0
z_2_1_9_GCN 1
x_2_1_10_GCN 0
s_2_1_10_GCN 5.7202118027717030e-01
z_2_1_10_GCN 0
x_2_1_11_GCN 0
s_2_1_11_GCN 0
z_2_1_11_GCN 1
x_2_1_12_GCN 0
s_2_1_12_GCN 0.638931186495888
z_2_1_12_GCN 0
x_2_1_13_GCN 0
s_2_1_13_GCN 0
z_2_1_13_GCN 1
x_2_1_14_GCN 0
s_2_1_14_GCN 2.4839194091279848e-01
z_2_1_14_GCN 0
x_2_1_15_GCN 0
s_2_1_15_GCN 0
z_2_1_15_GCN 1
x_2_1_16_GCN 0
s_2_1_16_GCN 0
z_2_1_16_GCN 1
x_2_1_17_GCN 0
s_2_1_17_GCN 0
z_2_1_17_GCN 1
x_2_1_18_GCN 0
s_2_1_18_GCN 0
z_2_1_18_GCN 1
x_2_1_19_GCN 0
s_2_1_19_GCN 0
z_2_1_19_GCN 1
x_2_1_20_GCN 0
s_2_1_20_GCN 5.6548037376595951e-02
z_2_1_20_GCN 0
x_2_1_21_GCN 0
s_2_1_21_GCN 0
z_2_1_21_GCN 1
x_2_1_22_GCN 0
s_2_1_22_GCN 0
z_2_1_22_GCN 1
x_2_1_23_GCN 0
s_2_1_23_GCN 0.44303040941479
z_2_1_23_GCN 0
x_2_1_24_GCN 0
s_2_1_24_GCN 0
z_2_1_24_GCN 1
x_2_1_25_GCN 0
s_2_1_25_GCN 4.0309819020299131e-01
z_2_1_25_GCN 0
x_2_1_26_GCN 0
s_2_1_26_GCN 0
z_2_1_26_GCN 1
x_2_1_27_GCN 0
s_2_1_27_GCN 5.6699827587204743e-01
z_2_1_27_GCN 0
x_2_1_28_GCN 0
s_2_1_28_GCN 0
z_2_1_28_GCN 1
x_2_1_29_GCN 0
s_2_1_29_GCN 0
z_2_1_29_GCN 1
x_2_1_30_GCN 0
s_2_1_30_GCN 0
z_2_1_30_GCN 1
x_2_1_31_GCN 0
s_2_1_31_GCN 0
z_2_1_31_GCN 1
x_2_2_0_GCN 0
s_2_2_0_GCN 3.4184342901198927e-01
z_2_2_0_GCN 0
x_2_2_1_GCN 0
s_2_2_1_GCN 0
z_2_2_1_GCN 1
x_2_2_2_GCN 0
s_2_2_2_GCN 2.8733991826494065e-01
z_2_2_2_GCN 0
x_2_2_3_GCN 0
s_2_2_3_GCN 0
z_2_2_3_GCN 1
x_2_2_4_GCN 0
s_2_2_4_GCN 1.4340869043272039e-01
z_2_2_4_GCN 0
x_2_2_5_GCN 0
s_2_2_5_GCN 2.4854146172655933e-01
z_2_2_5_GCN 0
x_2_2_6_GCN 0
s_2_2_6_GCN 0
z_2_2_6_GCN 1
x_2_2_7_GCN 0
s_2_2_7_GCN 0
z_2_2_7_GCN 1
x_2_2_8_GCN 0
s_2_2_8_GCN 8.2701197606177945e-01
z_2_2_8_GCN 0
x_2_2_9_GCN 0
s_2_2_9_GCN 0
z_2_2_9_GCN 1
x_2_2_10_GCN 0
s_2_2_10_GCN 5.7202118027717319e-01
z_2_2_10_GCN 0
x_2_2_11_GCN 0
s_2_2_11_GCN 0
z_2_2_11_GCN 1
x_2_2_12_GCN 0
s_2_2_12_GCN 6.3893118649589142e-01
z_2_2_12_GCN 0
x_2_2_13_GCN 0
s_2_2_13_GCN 0
z_2_2_13_GCN 1
x_2_2_14_GCN 0
s_2_2_14_GCN 2.4839194091279990e-01
z_2_2_14_GCN 0
x_2_2_15_GCN 0
s_2_2_15_GCN 0
z_2_2_15_GCN 1
x_2_2_16_GCN 0
s_2_2_16_GCN 0
z_2_2_16_GCN 1
x_2_2_17_GCN 0
s_2_2_17_GCN 0
z_2_2_17_GCN 1
x_2_2_18_GCN 0
s_2_2_18_GCN 0
z_2_2_18_GCN 1
x_2_2_19_GCN 0
s_2_2_19_GCN 0
z_2_2_19_GCN 1
x_2_2_20_GCN 0
s_2_2_20_GCN 5.6548037376596270e-02
z_2_2_20_GCN 0
x_2_2_21_GCN 0
s_2_2_21_GCN 0
z_2_2_21_GCN 1
x_2_2_22_GCN 0
s_2_2_22_GCN 0
z_2_2_22_GCN 1
x_2_2_23_GCN 0
s_2_2_23_GCN 4.4303040941479221e-01
z_2_2_23_GCN 0
x_2_2_24_GCN 0
s_2_2_24_GCN 0
z_2_2_24_GCN 1
x_2_2_25_GCN 0
s_2_2_25_GCN 4.0309819020299353e-01
z_2_2_25_GCN 0
x_2_2_26_GCN 0
s_2_2_26_GCN 0
z_2_2_26_GCN 1
x_2_2_27_GCN 0
s_2_2_27_GCN 5.6699827587205043e-01
z_2_2_27_GCN 0
x_2_2_28_GCN 0
s_2_2_28_GCN 0
z_2_2_28_GCN 1
x_2_2_29_GCN 0
s_2_2_29_GCN 0
z_2_2_29_GCN 1
x_2_2_30_GCN 0
s_2_2_30_GCN 0
z_2_2_30_GCN 1
x_2_2_31_GCN 0
s_2_2_31_GCN 0
z_2_2_31_GCN 1
x_2_3_0_GCN 0
s_2_3_0_GCN 3.4184342901198383e-01
z_2_3_0_GCN 0
x_2_3_1_GCN 0
s_2_3_1_GCN 0
z_2_3_1_GCN 1
x_2_3_2_GCN 0
s_2_3_2_GCN 2.8733991826493627e-01
z_2_3_2_GCN 0
x_2_3_3_GCN 0
s_2_3_3_GCN 0
z_2_3_3_GCN 1
x_2_3_4_GCN 0
s_2_3_4_GCN 1.4340869043271814e-01
z_2_3_4_GCN 0
x_2_3_5_GCN 0
s_2_3_5_GCN 2.4854146172655539e-01
z_2_3_5_GCN 0
x_2_3_6_GCN 0
s_2_3_6_GCN 0
z_2_3_6_GCN 1
x_2_3_7_GCN 0
s_2_3_7_GCN 0
z_2_3_7_GCN 1
x_2_3_8_GCN 0
s_2_3_8_GCN 8.2701197606176613e-01
z_2_3_8_GCN 0
x_2_3_9_GCN 0
s_2_3_9_GCN 0
z_2_3_9_GCN 1
x_2_3_10_GCN 0
s_2_3_10_GCN 5.7202118027716420e-01
z_2_3_10_GCN 0
x_2_3_11_GCN 0
s_2_3_11_GCN 0
z_2_3_11_GCN 1
x_2_3_12_GCN 0
s_2_3_12_GCN 6.3893118649588110e-01
z_2_3_12_GCN 0
x_2_3_13_GCN 0
s_2_3_13_GCN 0
z_2_3_13_GCN 1
x_2_3_14_GCN 0
s_2_3_14_GCN 2.4839194091279590e-01
z_2_3_14_GCN 0
x_2_3_15_GCN 0
s_2_3_15_GCN 0
z_2_3_15_GCN 1
x_2_3_16_GCN 0
s_2_3_16_GCN 0
z_2_3_16_GCN 1
x_2_3_17_GCN 0
s_2_3_17_GCN 0
z_2_3_17_GCN 1
x_2_3_18_GCN 0
s_2_3_18_GCN 0
z_2_3_18_GCN 1
x_2_3_19_GCN 0
s_2_3_19_GCN 0
z_2_3_19_GCN 1
x_2_3_20_GCN 0
s_2_3_20_GCN 5.6548037376595361e-02
z_2_3_20_GCN 0
x_2_3_21_GCN 0
s_2_3_21_GCN 0
z_2_3_21_GCN 1
x_2_3_22_GCN 0
s_2_3_22_GCN 0
z_2_3_22_GCN 1
x_2_3_23_GCN 0
s_2_3_23_GCN 4.4303040941478528e-01
z_2_3_23_GCN 0
x_2_3_24_GCN 0
s_2_3_24_GCN 0
z_2_3_24_GCN 1
x_2_3_25_GCN 0
s_2_3_25_GCN 4.0309819020298715e-01
z_2_3_25_GCN 0
x_2_3_26_GCN 0
s_2_3_26_GCN 0
z_2_3_26_GCN 1
x_2_3_27_GCN 0
s_2_3_27_GCN 5.6699827587204155e-01
z_2_3_27_GCN 0
x_2_3_28_GCN 0
s_2_3_28_GCN 0
z_2_3_28_GCN 1
x_2_3_29_GCN 0
s_2_3_29_GCN 0
z_2_3_29_GCN 1
x_2_3_30_GCN 0
s_2_3_30_GCN 0
z_2_3_30_GCN 1
x_2_3_31_GCN 0
s_2_3_31_GCN 0
z_2_3_31_GCN 1
h[0] 0
h[1] 3.0045806205381362e+00
h[2] 0
h[3] 9.0782540911539922e-01
h[4] 0
h[5] 0
h[6] 2.3769894024224905e+00
h[7] 1.7172625257873182e+00
h[8] 0
h[9] 4.1017167173011684e+00
h[10] 0
h[11] 3.4321269419768003e+00
h[12] 0
h[13] 1.3638080585302843e+00
h[14] 0
h[15] 9.0613577953100516e-02
h[16] 8.9707170128962344e-01
h[17] 1.0125128001024182e+00
h[18] 0.864340314911717
h[19] 6.8652746556688626e-02
h[20] 0
h[21] 3.1233866519795659e+00
h[22] 4.3013154972856427e-01
h[23] 0
h[24] 1.2875977479507505e+00
h[25] 0
h[26] 6.2937754381714783e-01
h[27] 0
h[28] 8.5099704151950650e-01
h[29] 7.4697159087075649e-01
h[30] 1.9832580163554527e+00
h[31] 3.2242975758766903e+00
y 1.8336452441507740e+00
x_1_0_ANN 1.9710569401584
s_1_0_ANN 0
z_1_0_ANN 1
x_1_1_ANN 0
s_1_1_ANN 9.6688835047310617e-01
z_1_1_ANN 0
x_1_2_ANN 2.5326357128416817e+00
s_1_2_ANN 0
z_1_2_ANN 1
x_1_3_ANN 0
s_1_3_ANN 1.3497920277873314e+00
z_1_3_ANN 0
x_1_4_ANN 0
s_1_4_ANN 5.7921002911335129e-01
z_1_4_ANN 0
x_1_5_ANN 0
s_1_5_ANN 2.5924946640357621e-01
z_1_5_ANN 0
x_1_6_ANN 0
s_1_6_ANN 7.7067672887625482e-01
z_1_6_ANN 0
x_1_7_ANN 2.5812970458110711e+00
s_1_7_ANN 0
z_1_7_ANN 1
x_1_8_ANN 5.8262228393779592e-01
s_1_8_ANN 0
z_1_8_ANN 1
x_1_9_ANN 0
s_1_9_ANN 7.2262290515870764e-01
z_1_9_ANN 0
x_1_10_ANN 0
s_1_10_ANN 8.2576957034336362e-01
z_1_10_ANN 0
x_1_11_ANN 6.3519448229268971e-01
s_1_11_ANN 0
z_1_11_ANN 1
x_1_12_ANN 0
s_1_12_ANN 0.184982262142536
z_1_12_ANN 0
x_1_13_ANN 3.8042015301278815e+00
s_1_13_ANN 0
z_1_13_ANN 1
x_1_14_ANN 2.5383830832255456e+00
s_1_14_ANN 0
z_1_14_ANN 1
x_1_15_ANN 0
s_1_15_ANN 7.5322467149476058e-01
z_1_15_ANN 0
